p cnf 7230 16
889 -1193 0
-245 -516 1196 0
245 -1197 0
-802 -889 1192 0
889 -1195 0
-805 -889 1194 0
-814 1199 0
1198 -1199 0
814 -1198 0
-1196 1197 0
-1192 1193 0
516 -1197 0
-1194 1195 0
805 -1195 0
802 -1193 0
816 -1201 0
